291
1000
798	2
796	2
795	2
793	3
792	1
791	2
786	1
782	1
777	1
771	1
770	1
769	1
768	2
766	1
765	1
762	2
761	2
760	1
759	1
757	1
756	1
755	2
754	1
750	1
749	1
748	1
747	1
746	1
745	1
744	1
743	1
742	2
738	1
736	2
733	2
732	1
730	1
726	2
725	1
724	1
722	1
721	2
711	1
709	1
708	1
706	1
705	1
704	1
701	2
700	1
698	1
697	1
696	1
695	1
694	1
692	2
691	1
690	1
689	2
687	2
686	2
684	2
683	2
682	2
679	1
676	1
675	2
673	1
670	1
667	3
666	1
664	1
662	3
657	2
656	1
653	1
651	1
650	1
649	1
648	1
647	1
646	1
645	1
639	1
637	1
635	1
633	1
632	2
625	1
624	1
623	1
617	1
615	1
614	1
612	1
610	2
609	1
602	1
600	1
599	1
595	2
593	1
591	1
589	2
587	2
584	1
583	1
582	1
581	1
579	1
578	1
574	1
570	1
568	1
566	1
565	1
559	2
557	2
556	2
553	1
549	1
548	2
546	2
544	1
542	1
540	1
537	2
535	1
534	2
533	2
532	2
527	2
526	2
525	1
524	2
523	1
522	1
520	1
518	1
516	1
515	2
513	1
509	2
508	1
507	1
506	1
504	1
503	1
500	2
499	1
498	1
497	1
496	3
495	2
494	1
492	1
490	1
486	1
484	2
482	1
480	2
477	1
475	2
472	1
469	1
468	1
462	2
461	1
460	1
455	1
453	1
450	2
449	2
446	1
444	1
439	1
438	1
436	1
435	2
433	1
432	2
431	2
429	2
428	3
423	2
421	1
420	1
418	1
417	2
415	1
412	1
409	2
408	1
407	1
405	3
404	2
400	1
399	1
398	1
394	1
391	1
390	1
388	1
387	2
386	2
384	1
378	1
377	1
376	1
370	2
367	1
366	2
364	2
361	1
358	1
357	1
355	1
354	3
352	1
350	2
343	2
342	1
339	1
338	3
335	1
334	1
333	1
330	2
329	1
328	1
327	1
326	2
325	2
324	1
323	2
320	1
318	1
317	1
316	1
313	2
307	2
306	1
305	1
303	1
299	2
296	2
293	2
292	3
289	1
287	1
286	1
282	2
281	2
279	2
277	1
273	1
272	1
271	1
268	1
267	1
257	2
256	1
253	2
252	2
248	1
247	1
245	1
242	1
237	2
235	2
232	1
231	1
228	2
227	2
226	3
224	1
223	1
221	1
220	1
218	2
217	2
216	1
214	2
213	1
211	1
209	1
207	1
204	1
203	2
202	2
200	1
